param i_n :=
BelowNM 0
NMtoIL 100000000.0
AboveIL 1000000000.0
;
param i_ttn :=
PV1 BelowNM 1
PV1 NMtoIL 0
PV1 AboveIL 0
PV1NM BelowNM 0
PV1NM NMtoIL 1
PV1NM AboveIL 0
WIND BelowNM 1
WIND NMtoIL 0
WIND AboveIL 0
WINDNM BelowNM 0
WINDNM NMtoIL 1
WINDNM AboveIL 0
UTIL1 BelowNM 0
UTIL1 NMtoIL 0
UTIL1 AboveIL 0
;
